/* Objective function */
min: +y;

/* Constraints */
c1: +x1 +r1 <= 7;
c2: -y -r1 +y1 <= -4;
c3: +x2 +8 r2 <= 9;
c4: -y -8 r2 +y2 <= -9;
c5: +x3 +r3 <= 9;
c6: -y -r3 +y3 <= -2;
c7: +x4 +2 r4 <= 7;
c8: -y -2 r4 +y4 <= -5;
c9: +x5 +11 r5 <= 9;
c10: -y -11 r5 +y5 <= -12;
c11: +x6 +11 r6 <= 9;
c12: -y -11 r6 +y6 <= -12;
c13: +x7 -3 r7 <= 4;
c14: -y +3 r7 +y7 <= -3;
c15: +x1 +r1 -50 p12 -50 q12 -x2 <= -3;
c16: -r1 +y1 -50 p12 +50 q12 -y2 <= 46;
c17: +x1 -50 p12 +50 q12 -x2 +8 r2 >= -49;
c18: +y1 -50 p12 -50 q12 +8 r2 -y2 >= -91;
c19: +x1 +r1 -50 p13 -50 q13 -x3 <= -3;
c20: -r1 +y1 -50 p13 +50 q13 -y3 <= 46;
c21: +x1 -50 p13 +50 q13 -x3 +r3 >= -49;
c22: +y1 -50 p13 -50 q13 +r3 -y3 >= -98;
c23: +x1 +r1 -50 p14 -50 q14 -x4 <= -3;
c24: -r1 +y1 -50 p14 +50 q14 -y4 <= 46;
c25: +x1 -50 p14 +50 q14 -x4 +2 r4 >= -47;
c26: +y1 -50 p14 -50 q14 +2 r4 -y4 >= -95;
c27: +x1 +r1 -50 p15 -50 q15 -x5 <= -3;
c28: -r1 +y1 -50 p15 +50 q15 -y5 <= 46;
c29: +x1 -50 p15 +50 q15 -x5 +11 r5 >= -49;
c30: +y1 -50 p15 -50 q15 +11 r5 -y5 >= -88;
c31: +x1 +r1 -50 p16 -50 q16 -x6 <= -3;
c32: -r1 +y1 -50 p16 +50 q16 -y6 <= 46;
c33: +x1 -50 p16 +50 q16 -x6 +11 r6 >= -49;
c34: +y1 -50 p16 -50 q16 +11 r6 -y6 >= -88;
c35: +x1 +r1 -50 p17 -50 q17 -x7 <= -3;
c36: -r1 +y1 -50 p17 +50 q17 -y7 <= 46;
c37: +x1 -50 p17 +50 q17 -x7 -3 r7 >= -44;
c38: +y1 -50 p17 -50 q17 -3 r7 -y7 >= -97;
c39: +x2 +8 r2 -50 p23 -50 q23 -x3 <= -1;
c40: -8 r2 +y2 -50 p23 +50 q23 -y3 <= 41;
c41: +x2 -50 p23 +50 q23 -x3 +r3 >= -49;
c42: +y2 -50 p23 -50 q23 +r3 -y3 >= -98;
c43: +x2 +8 r2 -50 p24 -50 q24 -x4 <= -1;
c44: -8 r2 +y2 -50 p24 +50 q24 -y4 <= 41;
c45: +x2 -50 p24 +50 q24 -x4 +2 r4 >= -47;
c46: +y2 -50 p24 -50 q24 +2 r4 -y4 >= -95;
c47: +x2 +8 r2 -50 p25 -50 q25 -x5 <= -1;
c48: -8 r2 +y2 -50 p25 +50 q25 -y5 <= 41;
c49: +x2 -50 p25 +50 q25 -x5 +11 r5 >= -49;
c50: +y2 -50 p25 -50 q25 +11 r5 -y5 >= -88;
c51: +x2 +8 r2 -50 p26 -50 q26 -x6 <= -1;
c52: -8 r2 +y2 -50 p26 +50 q26 -y6 <= 41;
c53: +x2 -50 p26 +50 q26 -x6 +11 r6 >= -49;
c54: +y2 -50 p26 -50 q26 +11 r6 -y6 >= -88;
c55: +x2 +8 r2 -50 p27 -50 q27 -x7 <= -1;
c56: -8 r2 +y2 -50 p27 +50 q27 -y7 <= 41;
c57: +x2 -50 p27 +50 q27 -x7 -3 r7 >= -44;
c58: +y2 -50 p27 -50 q27 -3 r7 -y7 >= -97;
c59: +x3 +r3 -50 p34 -50 q34 -x4 <= -1;
c60: -r3 +y3 -50 p34 +50 q34 -y4 <= 48;
c61: +x3 -50 p34 +50 q34 -x4 +2 r4 >= -47;
c62: +y3 -50 p34 -50 q34 +2 r4 -y4 >= -95;
c63: +x3 +r3 -50 p35 -50 q35 -x5 <= -1;
c64: -r3 +y3 -50 p35 +50 q35 -y5 <= 48;
c65: +x3 -50 p35 +50 q35 -x5 +11 r5 >= -49;
c66: +y3 -50 p35 -50 q35 +11 r5 -y5 >= -88;
c67: +x3 +r3 -50 p36 -50 q36 -x6 <= -1;
c68: -r3 +y3 -50 p36 +50 q36 -y6 <= 48;
c69: +x3 -50 p36 +50 q36 -x6 +11 r6 >= -49;
c70: +y3 -50 p36 -50 q36 +11 r6 -y6 >= -88;
c71: +x3 +r3 -50 p37 -50 q37 -x7 <= -1;
c72: -r3 +y3 -50 p37 +50 q37 -y7 <= 48;
c73: +x3 -50 p37 +50 q37 -x7 -3 r7 >= -44;
c74: +y3 -50 p37 -50 q37 -3 r7 -y7 >= -97;
c75: +x4 +2 r4 -50 p45 -50 q45 -x5 <= -3;
c76: -2 r4 +y4 -50 p45 +50 q45 -y5 <= 45;
c77: +x4 -50 p45 +50 q45 -x5 +11 r5 >= -49;
c78: +y4 -50 p45 -50 q45 +11 r5 -y5 >= -88;
c79: +x4 +2 r4 -50 p46 -50 q46 -x6 <= -3;
c80: -2 r4 +y4 -50 p46 +50 q46 -y6 <= 45;
c81: +x4 -50 p46 +50 q46 -x6 +11 r6 >= -49;
c82: +y4 -50 p46 -50 q46 +11 r6 -y6 >= -88;
c83: +x4 +2 r4 -50 p47 -50 q47 -x7 <= -3;
c84: -2 r4 +y4 -50 p47 +50 q47 -y7 <= 45;
c85: +x4 -50 p47 +50 q47 -x7 -3 r7 >= -44;
c86: +y4 -50 p47 -50 q47 -3 r7 -y7 >= -97;
c87: +x5 +11 r5 -50 p56 -50 q56 -x6 <= -1;
c88: -11 r5 +y5 -50 p56 +50 q56 -y6 <= 38;
c89: +x5 -50 p56 +50 q56 -x6 +11 r6 >= -49;
c90: +y5 -50 p56 -50 q56 +11 r6 -y6 >= -88;
c91: +x5 +11 r5 -50 p57 -50 q57 -x7 <= -1;
c92: -11 r5 +y5 -50 p57 +50 q57 -y7 <= 38;
c93: +x5 -50 p57 +50 q57 -x7 -3 r7 >= -44;
c94: +y5 -50 p57 -50 q57 -3 r7 -y7 >= -97;
c95: +x6 +11 r6 -50 p67 -50 q67 -x7 <= -1;
c96: -11 r6 +y6 -50 p67 +50 q67 -y7 <= 38;
c97: +x6 -50 p67 +50 q67 -x7 -3 r7 >= -44;
c98: +y6 -50 p67 -50 q67 -3 r7 -y7 >= -97;

/* Variable bounds */
r1 <= 1;
p12 <= 1;
q12 <= 1;
p13 <= 1;
q13 <= 1;
p14 <= 1;
q14 <= 1;
p15 <= 1;
q15 <= 1;
p16 <= 1;
q16 <= 1;
p17 <= 1;
q17 <= 1;
r2 <= 1;
p23 <= 1;
q23 <= 1;
p24 <= 1;
q24 <= 1;
p25 <= 1;
q25 <= 1;
p26 <= 1;
q26 <= 1;
p27 <= 1;
q27 <= 1;
r3 <= 1;
p34 <= 1;
q34 <= 1;
p35 <= 1;
q35 <= 1;
p36 <= 1;
q36 <= 1;
p37 <= 1;
q37 <= 1;
r4 <= 1;
p45 <= 1;
q45 <= 1;
p46 <= 1;
q46 <= 1;
p47 <= 1;
q47 <= 1;
r5 <= 1;
p56 <= 1;
q56 <= 1;
p57 <= 1;
q57 <= 1;
r6 <= 1;
p67 <= 1;
q67 <= 1;
x7 = 0;
r7 = 0;
y7 = 0;

/* Integer definitions */
int r1,p12,q12,p13,q13,p14,q14,p15,q15,p16,q16,p17,q17,r2,p23,q23,p24,q24,p25,q25,p26,q26,p27,q27,r3,p34,q34,p35,q35,p36,q36,p37,q37,r4,p45,q45,p46,q46,p47,q47,r5,p56,q56,p57,q57,r6,p67,q67,r7;
